n = 25
Q1 = [0 28 31 36 42 28 36 29 36 9 17 31 19 45 19 20 40 44 24 49 39 31 49 19 28; 0 0 21 22 31 13 26 10 12 35 27 24 39 20 30 33 33 25 43 36 27 37 35 16 11; 0 0 0 31 12 45 16 38 46 16 7 25 27 39 46 22 8 36 14 7 28 40 42 27 14; 0 0 0 0 43 35 22 36 6 19 10 30 31 21 35 44 27 44 38 6 45 17 47 18 16; 0 0 0 0 0 20 22 35 9 6 43 29 17 9 28 18 20 40 37 15 23 21 25 30 35; 0 0 0 0 0 0 17 41 11 11 48 31 19 46 16 41 35 9 15 38 50 7 38 25 23; 0 0 0 0 0 0 0 41 33 22 31 24 22 10 28 10 28 48 28 47 39 29 49 42 27; 0 0 0 0 0 0 0 0 27 27 37 44 33 30 16 7 21 31 26 50 40 49 45 37 24; 0 0 0 0 0 0 0 0 0 41 27 48 39 8 19 35 29 40 36 17 26 35 30 46 8; 0 0 0 0 0 0 0 0 0 0 20 25 23 29 17 49 39 5 5 20 16 32 41 10 13; 0 0 0 0 0 0 0 0 0 0 0 34 46 37 18 31 14 15 24 10 40 17 6 8 34; 0 0 0 0 0 0 0 0 0 0 0 0 11 29 21 28 8 33 25 5 17 34 10 43 29; 0 0 0 0 0 0 0 0 0 0 0 0 0 8 23 47 28 9 12 37 46 46 7 21 11; 0 0 0 0 0 0 0 0 0 0 0 0 0 0 41 26 34 24 11 50 13 43 50 32 28; 0 0 0 0 0 0 0 0 0 0 0 0 0 0 0 12 13 25 21 6 39 43 17 18 18; 0 0 0 0 0 0 0 0 0 0 0 0 0 0 0 0 43 6 36 11 36 37 49 41 7; 0 0 0 0 0 0 0 0 0 0 0 0 0 0 0 0 0 37 20 39 6 40 19 31 10; 0 0 0 0 0 0 0 0 0 0 0 0 0 0 0 0 0 0 33 48 22 22 27 42 31; 0 0 0 0 0 0 0 0 0 0 0 0 0 0 0 0 0 0 0 43 8 48 25 6 9; 0 0 0 0 0 0 0 0 0 0 0 0 0 0 0 0 0 0 0 0 9 15 17 48 37; 0 0 0 0 0 0 0 0 0 0 0 0 0 0 0 0 0 0 0 0 0 6 22 25 27; 0 0 0 0 0 0 0 0 0 0 0 0 0 0 0 0 0 0 0 0 0 0 20 22 40; 0 0 0 0 0 0 0 0 0 0 0 0 0 0 0 0 0 0 0 0 0 0 0 39 16; 0 0 0 0 0 0 0 0 0 0 0 0 0 0 0 0 0 0 0 0 0 0 0 0 12; 0 0 0 0 0 0 0 0 0 0 0 0 0 0 0 0 0 0 0 0 0 0 0 0 0]
Q2=[0.0 13.0 7.0 1.0 2.0 8.0 9.0 16.0 9.0 44.0 45.0 1.0 32.0 0.0 38.0 43.0 0.0 6.0 44.0 0.0 5.0 17.0 1.0 43.0 20.0; 0.0 0.0 43.0 28.0 15.0 44.0 19.0 45.0 41.0 3.0 13.0 27.0 3.0 45.0 2.0 4.0 7.0 20.0 5.0 7.0 12.0 1.0 13.0 42.0 45.0; 0.0 0.0 0.0 6.0 44.0 0.0 42.0 4.0 1.0 37.0 50.0 3.0 3.0 0.0 1.0 46.0 46.0 13.0 42.0 49.0 11.0 8.0 0.0 8.0 46.0; 0.0 0.0 0.0 0.0 4.0 0.0 44.0 4.0 47.0 45.0 47.0 4.0 0.0 41.0 1.0 3.0 21.0 1.0 6.0 49.0 4.0 44.0 0.0 36.0 47.0; 0.0 0.0 0.0 0.0 0.0 32.0 40.0 8.0 44.0 49.0 0.0 3.0 48.0 43.0 19.0 32.0 49.0 7.0 3.0 46.0 30.0 31.0 10.0 12.0 14.0; 0.0 0.0 0.0 0.0 0.0 0.0 40.0 4.0 42.0 42.0 2.0 11.0 37.0 4.0 47.0 4.0 2.0 46.0 50.0 0.0 0.0 43.0 8.0 19.0 40.0; 0.0 0.0 0.0 0.0 0.0 0.0 0.0 8.0 7.0 42.0 3.0 39.0 42.0 46.0 4.0 41.0 9.0 1.0 7.0 0.0 8.0 7.0 0.0 5.0 4.0; 0.0 0.0 0.0 0.0 0.0 0.0 0.0 0.0 10.0 11.0 13.0 4.0 5.0 11.0 43.0 44.0 50.0 6.0 11.0 0.0 9.0 0.0 3.0 2.0 34.0; 0.0 0.0 0.0 0.0 0.0 0.0 0.0 0.0 0.0 2.0 16.0 0.0 10.0 44.0 42.0 0.0 14.0 8.0 3.0 46.0 23.0 14.0 12.0 0.0 42.0; 0.0 0.0 0.0 0.0 0.0 0.0 0.0 0.0 0.0 0.0 47.0 25.0 40.0 17.0 37.0 1.0 8.0 49.0 48.0 44.0 42.0 18.0 8.0 41.0 48.0; 0.0 0.0 0.0 0.0 0.0 0.0 0.0 0.0 0.0 0.0 0.0 8.0 0.0 3.0 43.0 3.0 38.0 35.0 26.0 48.0 1.0 47.0 48.0 47.0 1.0; 0.0 0.0 0.0 0.0 0.0 0.0 0.0 0.0 0.0 0.0 0.0 0.0 45.0 14.0 46.0 9.0 49.0 0.0 17.0 48.0 36.0 15.0 42.0 6.0 2.0; 0.0 0.0 0.0 0.0 0.0 0.0 0.0 0.0 0.0 0.0 0.0 0.0 0.0 48.0 44.0 2.0 20.0 42.0 40.0 9.0 4.0 0.0 47.0 39.0 49.0; 0.0 0.0 0.0 0.0 0.0 0.0 0.0 0.0 0.0 0.0 0.0 0.0 0.0 0.0 1.0 7.0 13.0 44.0 43.0 0.0 40.0 4.0 0.0 8.0 17.0; 0.0 0.0 0.0 0.0 0.0 0.0 0.0 0.0 0.0 0.0 0.0 0.0 0.0 0.0 0.0 48.0 46.0 22.0 34.0 47.0 6.0 6.0 35.0 39.0 43.0; 0.0 0.0 0.0 0.0 0.0 0.0 0.0 0.0 0.0 0.0 0.0 0.0 0.0 0.0 0.0 0.0 0.0 47.0 12.0 45.0 12.0 1.0 0.0 7.0 48.0; 0.0 0.0 0.0 0.0 0.0 0.0 0.0 0.0 0.0 0.0 0.0 0.0 0.0 0.0 0.0 0.0 0.0 1.0 34.0 0.0 50.0 4.0 40.0 10.0 42.0; 0.0 0.0 0.0 0.0 0.0 0.0 0.0 0.0 0.0 0.0 0.0 0.0 0.0 0.0 0.0 0.0 0.0 0.0 14.0 2.0 41.0 33.0 15.0 5.0 2.0; 0.0 0.0 0.0 0.0 0.0 0.0 0.0 0.0 0.0 0.0 0.0 0.0 0.0 0.0 0.0 0.0 0.0 0.0 0.0 6.0 43.0 0.0 15.0 48.0 49.0; 0.0 0.0 0.0 0.0 0.0 0.0 0.0 0.0 0.0 0.0 0.0 0.0 0.0 0.0 0.0 0.0 0.0 0.0 0.0 0.0 45.0 44.0 45.0 2.0 8.0; 0.0 0.0 0.0 0.0 0.0 0.0 0.0 0.0 0.0 0.0 0.0 0.0 0.0 0.0 0.0 0.0 0.0 0.0 0.0 0.0 0.0 45.0 48.0 9.0 18.0; 0.0 0.0 0.0 0.0 0.0 0.0 0.0 0.0 0.0 0.0 0.0 0.0 0.0 0.0 0.0 0.0 0.0 0.0 0.0 0.0 0.0 0.0 46.0 30.0 6.0; 0.0 0.0 0.0 0.0 0.0 0.0 0.0 0.0 0.0 0.0 0.0 0.0 0.0 0.0 0.0 0.0 0.0 0.0 0.0 0.0 0.0 0.0 0.0 6.0 43.0; 0.0 0.0 0.0 0.0 0.0 0.0 0.0 0.0 0.0 0.0 0.0 0.0 0.0 0.0 0.0 0.0 0.0 0.0 0.0 0.0 0.0 0.0 0.0 0.0 46.0; 0.0 0.0 0.0 0.0 0.0 0.0 0.0 0.0 0.0 0.0 0.0 0.0 0.0 0.0 0.0 0.0 0.0 0.0 0.0 0.0 0.0 0.0 0.0 0.0 0.0]
